p tw 561 1597
0 1
0 27
1 58
1 516
2 3
2 36
2 179
3 114
3 118
3 119
3 179
3 379
4 5
4 6
4 7
4 98
4 419
4 204
4 229
4 358
4 411
5 6
5 7
5 104
6 7
6 192
6 236
6 487
6 526
7 31
7 137
7 320
7 198
7 333
7 179
7 193
7 456
7 261
7 285
7 276
7 436
8 9
8 10
8 11
8 151
8 331
9 10
9 11
9 47
9 277
9 233
9 418
9 41
9 187
10 11
10 228
10 415
11 530
12 13
12 37
12 132
12 224
12 483
12 520
13 54
13 191
14 15
14 17
14 218
14 313
14 428
14 163
14 249
14 278
15 70
15 108
15 216
15 328
16 17
16 187
16 188
16 189
16 121
16 329
17 55
17 56
17 218
17 513
17 514
18 19
18 20
18 108
18 296
18 543
19 20
19 110
19 111
19 112
19 226
19 232
19 248
19 249
19 59
19 195
19 246
19 79
19 473
19 313
19 461
19 446
19 45
19 517
19 518
19 465
19 553
20 201
20 202
20 216
20 330
20 124
20 387
20 460
20 490
20 465
20 28
20 353
20 362
20 512
20 32
20 394
20 451
20 473
20 539
20 54
20 503
20 559
20 112
20 142
21 22
21 23
21 333
21 412
22 23
22 48
22 50
23 114
23 418
24 25
24 26
24 208
24 524
25 26
25 328
25 355
26 182
26 217
27 71
27 142
27 144
27 540
28 29
28 30
28 31
28 241
28 245
28 151
28 253
28 119
28 316
28 33
28 396
28 187
28 258
28 117
28 455
28 41
28 47
28 84
28 52
28 68
28 353
28 362
28 512
28 38
28 54
28 538
28 53
28 251
29 30
29 31
29 304
30 31
30 349
30 87
31 126
31 127
31 229
31 290
31 178
31 438
32 33
32 34
32 394
32 451
33 34
33 396
34 46
34 457
35 36
35 37
35 545
36 37
36 179
36 96
36 289
36 352
37 132
37 224
37 170
37 519
38 39
38 40
38 54
39 40
39 152
39 350
40 50
40 75
41 42
41 60
41 61
41 382
41 383
41 119
41 417
41 163
41 478
41 109
41 483
41 484
41 485
41 149
41 486
41 487
41 187
41 492
41 114
41 421
41 398
41 528
41 479
41 560
42 114
42 166
42 175
43 44
43 45
43 72
43 73
43 74
44 45
44 107
45 172
45 70
45 147
45 159
45 507
45 517
45 518
45 218
45 321
45 335
46 47
46 48
46 113
46 114
46 115
46 79
46 142
46 195
46 196
46 152
46 226
46 227
46 233
46 234
46 174
46 206
46 237
46 66
46 217
46 447
46 448
46 457
46 52
46 270
46 50
46 481
46 92
46 504
46 167
46 540
46 222
46 430
47 48
47 76
47 77
47 211
47 212
47 277
47 50
47 311
47 49
47 80
47 100
47 421
47 84
48 331
48 50
48 119
48 338
49 50
49 51
50 51
50 75
50 163
50 311
50 481
50 530
50 69
50 234
50 52
50 152
51 323
51 494
52 53
52 54
52 92
52 79
52 86
52 100
52 253
52 119
52 205
52 103
52 186
52 333
52 151
52 362
52 161
52 467
52 468
52 270
52 68
52 463
52 499
52 510
52 166
52 389
52 114
52 541
52 173
52 557
52 152
53 54
53 137
53 138
53 139
53 279
53 280
53 114
53 284
53 319
53 389
53 390
53 165
53 311
53 392
53 495
53 502
53 117
53 443
53 509
53 251
54 191
54 503
54 559
55 56
55 85
55 508
55 545
56 152
56 295
56 255
56 298
57 58
57 59
57 105
57 106
57 107
58 59
58 516
59 140
59 141
59 142
59 144
59 145
59 217
59 242
59 71
59 321
59 191
59 220
59 176
59 466
59 79
59 491
59 246
59 534
59 552
60 61
60 363
60 163
60 392
61 84
61 99
62 63
62 64
62 65
62 66
62 239
63 64
63 65
63 66
63 246
63 551
64 65
64 66
64 99
64 114
64 364
65 66
65 165
65 166
66 217
67 68
67 69
67 256
67 494
68 69
68 333
68 347
68 348
69 92
69 151
69 234
70 71
70 79
70 219
70 220
70 254
70 255
70 189
70 191
70 224
70 365
70 147
70 83
70 431
70 142
70 268
70 108
70 208
70 488
70 429
70 493
70 217
70 297
70 238
70 344
70 506
70 167
70 216
71 220
71 265
71 140
71 216
71 321
71 108
71 376
71 142
71 327
71 493
71 287
71 417
71 497
72 73
72 74
72 214
73 74
73 137
73 218
73 473
74 400
75 110
75 123
75 124
75 125
76 77
76 203
77 340
77 341
78 79
78 80
78 391
78 478
78 555
79 80
79 219
79 220
79 86
79 223
79 272
79 81
79 328
79 366
79 367
79 222
79 386
79 108
79 209
79 313
79 473
79 491
79 359
79 523
79 493
79 515
79 480
79 541
79 249
79 552
79 137
79 148
80 100
80 421
81 82
81 83
81 328
82 83
82 128
83 431
84 85
84 86
84 119
84 256
84 99
84 114
84 189
84 317
84 439
84 318
84 93
84 395
84 544
84 396
84 547
84 332
84 558
85 86
85 508
85 545
86 187
86 152
86 451
87 88
87 89
87 90
87 91
88 89
88 90
88 91
89 90
89 91
89 137
89 143
90 91
90 114
90 229
90 281
91 189
91 333
91 541
92 133
92 134
92 151
92 284
92 397
92 504
92 174
92 332
93 94
93 95
93 151
93 258
93 465
93 395
93 544
94 95
94 426
94 479
95 162
95 163
95 164
95 264
96 97
96 98
96 289
96 352
97 98
97 435
97 126
97 356
97 508
98 419
98 378
98 435
99 100
99 101
99 114
99 364
99 423
99 509
99 510
100 101
100 253
100 421
101 119
101 152
102 103
102 317
102 318
103 186
103 333
104 337
105 106
105 107
105 148
105 334
106 107
106 108
106 109
106 524
107 176
107 242
108 109
108 376
108 209
108 313
108 246
108 477
108 216
108 410
108 451
109 140
109 483
109 484
109 485
110 111
110 112
110 123
110 124
110 125
111 112
111 140
111 327
112 254
112 142
113 114
113 115
113 269
114 115
114 118
114 119
114 151
114 200
114 229
114 281
114 284
114 152
114 180
114 356
114 364
114 421
114 163
114 260
114 137
114 433
114 441
114 531
114 542
114 166
114 175
114 522
114 556
114 418
114 541
115 240
115 275
115 276
116 117
116 305
117 455
117 119
117 442
117 250
117 383
118 119
118 502
118 503
119 205
119 308
119 316
119 256
119 275
119 391
119 152
119 338
119 442
119 417
119 166
119 204
119 340
119 541
120 121
120 122
120 268
120 449
121 122
121 329
122 550
123 124
123 125
123 239
123 496
124 125
124 387
125 226
125 429
125 430
126 127
127 190
127 420
128 129
129 137
129 213
130 131
130 132
130 193
130 237
130 315
131 132
131 469
132 224
133 134
133 231
133 260
133 346
134 282
134 374
135 136
135 137
135 248
135 366
136 137
136 517
136 546
137 138
137 139
137 143
137 213
137 320
137 158
137 243
137 433
137 441
137 250
137 251
137 361
137 218
137 473
137 151
137 184
137 536
137 148
138 139
138 173
138 174
138 175
139 194
139 221
140 141
140 142
140 216
140 327
141 142
141 265
141 394
142 167
142 168
142 195
142 196
142 296
142 309
142 310
142 216
142 313
142 268
142 465
142 498
142 151
142 484
142 215
142 298
142 222
142 430
142 217
143 280
143 382
144 145
144 540
145 196
145 201
146 147
146 148
146 214
146 215
147 148
148 334
149 150
149 153
149 154
149 486
149 487
149 450
150 285
150 286
150 289
150 290
150 393
151 152
151 200
151 253
151 362
151 316
151 423
151 424
151 425
151 329
151 504
151 258
151 465
151 331
151 538
151 484
151 458
151 514
151 548
151 555
151 184
151 536
152 187
152 197
152 226
152 227
152 257
152 270
152 277
152 346
152 350
152 180
152 356
152 204
152 250
152 377
152 295
152 451
152 375
153 154
153 258
153 200
153 259
153 295
153 404
153 166
153 207
154 302
154 527
155 156
155 293
156 267
156 278
157 158
157 159
158 159
158 243
159 507
160 161
160 470
160 556
162 163
162 164
162 314
162 315
163 164
163 392
163 249
163 278
163 478
163 260
164 306
164 307
164 303
164 420
165 166
165 311
165 392
166 204
166 228
166 399
166 408
166 207
166 389
166 175
166 253
166 545
167 168
167 176
167 296
167 540
167 216
168 296
168 518
169 170
169 171
169 193
169 505
170 171
170 519
171 439
171 440
172 290
172 407
172 437
173 174
173 175
173 557
174 175
174 206
174 332
176 242
176 466
177 178
177 211
177 259
177 260
178 438
178 262
178 406
179 193
179 456
179 379
180 181
180 182
180 356
181 182
181 453
181 537
182 217
183 184
183 185
183 186
183 229
183 345
184 185
184 186
184 536
185 186
186 333
187 188
187 189
187 197
187 258
187 492
187 200
187 357
188 189
188 495
188 404
188 512
188 531
189 271
189 191
189 224
189 365
189 273
189 317
189 253
189 318
189 333
189 541
190 472
191 216
191 217
191 224
191 365
191 220
192 193
192 194
192 236
192 487
192 526
193 194
193 237
193 315
193 285
193 312
193 381
193 456
193 505
193 319
193 496
193 290
194 221
195 196
195 246
195 298
196 201
197 480
197 481
197 482
198 199
198 333
199 262
199 290
199 322
199 474
200 259
200 348
200 357
201 202
202 209
202 210
203 204
203 205
203 424
204 205
204 228
204 250
204 377
204 276
204 406
204 340
204 541
205 250
206 207
206 208
207 208
207 355
208 488
208 524
209 210
209 313
210 244
211 212
211 259
211 260
212 257
213 411
213 412
213 413
214 215
214 334
214 335
214 336
215 406
215 428
215 471
215 298
216 217
216 330
216 313
216 246
216 328
216 465
216 535
216 410
216 451
217 242
217 297
218 313
218 473
218 321
218 335
219 220
219 354
219 447
220 263
220 264
220 265
220 414
220 453
220 465
222 223
222 373
222 386
222 549
222 430
223 272
224 225
224 365
225 491
225 552
226 227
226 232
226 429
226 430
227 410
227 449
228 229
228 230
228 231
228 415
229 230
229 231
229 281
229 345
229 419
229 290
229 358
229 411
230 231
230 347
230 349
230 360
230 361
231 260
231 346
232 330
233 234
233 418
235 236
235 237
235 238
235 476
235 532
236 237
236 238
236 487
236 526
237 238
237 315
237 342
237 414
238 393
238 472
238 344
238 506
238 314
238 468
239 496
240 241
240 256
240 257
240 275
240 276
241 245
243 244
245 337
245 338
245 339
246 247
246 477
246 255
246 513
246 534
246 549
246 553
246 551
247 516
248 249
248 366
249 278
249 313
250 251
250 252
250 269
250 377
250 361
250 383
251 252
251 361
252 383
252 528
252 536
253 510
253 545
254 255
255 298
255 513
256 257
256 494
257 270
258 307
258 422
258 465
259 260
260 322
260 346
261 262
261 285
262 290
262 406
263 264
263 298
265 394
266 267
266 268
266 409
266 410
267 268
267 278
268 385
268 446
268 449
271 343
272 309
272 539
273 274
274 522
274 523
275 276
275 391
276 406
276 436
277 346
279 280
279 324
280 382
281 377
281 425
282 283
282 374
283 421
284 397
284 408
285 286
285 312
285 381
286 312
286 542
286 544
286 547
287 288
287 417
287 497
287 504
288 529
289 290
289 352
290 427
290 450
290 407
290 437
291 292
291 293
291 427
291 533
292 293
292 444
294 295
294 532
295 404
296 543
296 518
297 298
297 299
297 326
297 373
297 471
297 459
298 299
298 325
298 326
298 459
299 367
299 376
299 500
300 301
300 350
301 521
302 303
302 527
304 388
305 499
306 307
306 505
306 506
307 422
307 444
308 470
309 310
309 539
310 431
310 515
311 392
312 381
313 428
313 405
313 461
314 315
314 468
316 332
316 423
317 318
317 538
317 557
317 558
319 320
319 389
319 390
319 496
321 335
322 474
323 324
323 494
325 326
325 394
325 395
326 500
326 501
327 489
327 493
328 355
329 330
329 409
329 504
330 409
332 339
332 482
332 558
333 347
333 348
333 412
333 541
334 335
334 336
335 336
337 338
337 339
338 339
339 482
340 341
340 541
341 368
342 343
342 344
342 414
343 344
344 506
345 369
345 415
347 348
347 349
347 360
347 361
349 360
349 361
351 352
353 354
353 362
353 512
354 447
356 508
357 358
357 359
358 359
358 411
359 523
360 361
362 512
363 521
364 462
364 463
364 464
365 485
365 559
366 367
367 376
367 500
368 369
369 415
370 371
370 372
371 372
371 426
371 427
372 469
373 471
374 375
376 500
377 425
378 379
378 380
378 381
378 435
379 380
379 381
380 381
382 383
383 528
383 536
384 385
384 386
384 387
384 430
384 466
384 489
385 386
385 387
385 446
386 387
386 551
388 390
388 474
389 390
390 474
391 478
391 555
393 472
394 395
394 445
394 451
394 448
395 544
396 427
396 432
396 547
397 398
397 399
398 399
398 528
399 408
400 401
402 403
402 519
402 520
403 405
404 512
404 531
406 407
406 428
406 471
407 437
409 410
410 449
410 451
411 412
411 413
412 413
416 417
416 464
417 497
422 511
423 509
423 510
424 425
426 427
426 479
427 450
427 432
427 533
428 471
429 430
429 493
430 466
430 489
431 515
432 433
432 434
433 434
433 441
436 437
436 438
437 438
439 440
440 533
440 554
441 442
441 443
442 443
443 509
445 511
447 448
451 452
451 453
452 453
452 486
452 529
453 465
453 537
454 455
454 462
456 496
457 458
458 514
459 460
459 461
460 461
460 490
462 463
462 464
463 464
463 499
465 498
465 535
465 553
466 489
467 468
467 511
468 475
470 556
473 539
475 476
476 532
477 498
477 525
478 555
479 560
480 481
480 482
480 541
481 482
483 484
483 485
483 520
483 491
484 485
485 559
486 487
486 529
487 526
488 497
488 537
490 507
490 543
491 552
492 504
492 548
493 515
493 525
495 502
497 537
498 525
500 501
501 534
501 535
502 503
503 559
504 548
505 506
507 543
508 545
509 510
512 531
513 514
517 518
517 546
519 520
522 523
522 556
524 526
524 527
526 527
528 536
531 542
533 554
534 535
538 557
538 558
542 544
542 547
544 547
548 555
549 553
550 560
557 558
